Gurobi Optimizer version 9.1.2 build v9.1.2rc0 (linux64)
Thread count: 36 physical cores, 72 logical processors, using up to 32 threads
Optimize a model with 12 rows, 57 columns and 590 nonzeros
Model fingerprint: 0xf32eec78
Model has 47 quadratic constraints
Coefficient statistics:
  Matrix range     [2e-05, 3e+00]
  QMatrix range    [1e+00, 1e+00]
  QLMatrix range   [1e+00, 1e+00]
  Objective range  [8e-03, 7e-01]
  Bounds range     [1e+00, 1e+00]
  RHS range        [1e+00, 1e+00]
Presolve removed 9 rows and 0 columns

Continuous model is non-convex -- solving as a MIP.

Presolve removed 9 rows and 0 columns
Presolve time: 0.00s
Presolved: 189 rows, 57 columns, 443 nonzeros
Presolved model has 47 bilinear constraint(s)
Variable types: 57 continuous, 0 integer (0 binary)

Root relaxation: objective -1.743721e+00, 44 iterations, 0.00 seconds

    Nodes    |    Current Node    |     Objective Bounds      |     Work
 Expl Unexpl |  Obj  Depth IntInf | Incumbent    BestBd   Gap | It/Node Time

     0     0   -1.74372    0   38          -   -1.74372      -     -    0s
H    0     0                       0.6147548   -1.74372   384%     -    0s
     0     0   -1.64739    0    1    0.61475   -1.64739   368%     -    0s
H    0     0                      -1.6450460   -1.64739  0.14%     -    0s
     0     0     cutoff    0        -1.64505   -1.64505  0.00%     -    0s

Cutting planes:
  RLT: 25
  BQP: 3

Explored 1 nodes (76 simplex iterations) in 0.01 seconds
Thread count was 32 (of 72 available processors)

Solution count 2: -1.64505 0.614755 
No other solutions better than -1.64505

Optimal solution found (tolerance 1.00e-04)
Best objective -1.645045978473e+00, best bound -1.645045978473e+00, gap 0.0000%

User-callback calls 78, time in user-callback 0.00 sec
Gurobi Optimizer version 9.1.2 build v9.1.2rc0 (linux64)
Thread count: 36 physical cores, 72 logical processors, using up to 32 threads
Optimize a model with 60 rows, 312 columns and 16100 nonzeros
Model fingerprint: 0x29802e47
Model has 262 quadratic constraints
Coefficient statistics:
  Matrix range     [4e-07, 7e+00]
  QMatrix range    [1e+00, 1e+00]
  QLMatrix range   [1e+00, 1e+00]
  Objective range  [5e-03, 2e+00]
  Bounds range     [1e+00, 1e+00]
  RHS range        [1e+00, 1e+00]
Presolve removed 16 rows and 0 columns

Continuous model is non-convex -- solving as a MIP.

Presolve removed 16 rows and 0 columns
Presolve time: 0.01s
Presolved: 1080 rows, 312 columns, 13136 nonzeros
Presolved model has 262 bilinear constraint(s)
Variable types: 312 continuous, 0 integer (0 binary)

Root relaxation: objective -3.182742e+01, 313 iterations, 0.01 seconds

    Nodes    |    Current Node    |     Objective Bounds      |     Work
 Expl Unexpl |  Obj  Depth IntInf | Incumbent    BestBd   Gap | It/Node Time

     0     0  -31.82742    0   85          -  -31.82742      -     -    0s
     0     0  -30.16099    0   69          -  -30.16099      -     -    0s
     0     0  -30.13596    0   74          -  -30.13596      -     -    0s
     0     0  -30.05487    0   69          -  -30.05487      -     -    0s
     0     0  -30.05244    0   69          -  -30.05244      -     -    0s
     0     0  -30.02703    0   74          -  -30.02703      -     -    0s
     0     0  -30.02691    0   74          -  -30.02691      -     -    0s
     0     0  -30.02679    0   74          -  -30.02679      -     -    0s
     0     0  -30.02670    0   74          -  -30.02670      -     -    0s
     0     0  -30.02565    0   69          -  -30.02565      -     -    0s
     0     0  -30.02483    0   74          -  -30.02483      -     -    0s
     0     0  -30.02422    0   74          -  -30.02422      -     -    0s
     0     0  -30.02349    0   74          -  -30.02349      -     -    0s
     0     2  -30.02349    0   74          -  -30.02349      -     -    0s
* 2328  1968              45     -27.9723379  -28.92502  3.41%  40.0    1s
* 2329  1968              45     -27.9723395  -28.92502  3.41%  40.0    1s
* 2403  1727              52     -28.2407633  -28.88955  2.30%  39.4    1s
* 2991  1920              91     -28.2815358  -28.88955  2.15%  39.8    1s
* 3104  1871              91     -28.2815417  -28.88955  2.15%  39.8    1s
* 3105  1871              91     -28.2815422  -28.88955  2.15%  39.8    1s
* 4551   503              61     -28.2825043  -28.88955  2.15%  44.3    3s
* 4646   434              60     -28.2825651  -28.88955  2.15%  44.1    3s
* 7066   815              61     -28.2866827  -28.88955  2.13%  41.5    4s
* 7511   925              54     -28.2866907  -28.83265  1.93%  40.8    4s
* 7716  1009              54     -28.2866908  -28.83265  1.93%  40.6    4s
* 7993  1103              69     -28.2903007  -28.78766  1.76%  40.5    4s
* 8205  1201              67     -28.2906951  -28.78766  1.76%  40.1    4s
* 8389  1342              69     -28.2999302  -28.78766  1.72%  40.0    4s
* 8390  1342              69     -28.2999622  -28.78766  1.72%  40.0    4s
* 8996  1571              65     -28.2999900  -28.69061  1.38%  39.3    4s
* 8997  1571              65     -28.3000090  -28.69061  1.38%  39.3    4s
* 9454  1827              66     -28.3192298  -28.69061  1.31%  38.8    4s
 10098  1866  -28.39771   28   32  -28.31923  -28.65012  1.17%  37.8    5s
*11240  1870              54     -28.3201264  -28.65012  1.17%  36.5    5s
*11243  1870              56     -28.3201682  -28.65012  1.17%  36.5    5s
*11244  1870              56     -28.3203907  -28.65012  1.16%  36.4    5s
*11603  1836              69     -28.3207333  -28.59078  0.95%  36.2    5s
*12107  1821              56     -28.3214872  -28.52705  0.73%  35.7    5s
*12109  1821              57     -28.3215092  -28.52705  0.73%  35.7    5s
*12110  1821              57     -28.3215092  -28.52705  0.73%  35.7    5s
*12112  1821              56     -28.3223334  -28.52705  0.72%  35.7    5s
*13234  1821              65     -28.3239634  -28.44072  0.41%  34.9    5s
*13236  1821              66     -28.3239745  -28.44072  0.41%  34.8    5s
*13237  1821              66     -28.3240475  -28.44072  0.41%  34.8    5s
*13750  1817              65     -28.3247018  -28.43045  0.37%  34.4    5s
*13751  1817              65     -28.3247081  -28.43045  0.37%  34.4    5s
*13752  1817              64     -28.3247579  -28.43045  0.37%  34.4    5s
*14158  1817              61     -28.3270457  -28.42484  0.35%  34.1    5s
*14160  1817              61     -28.3271120  -28.42484  0.34%  34.1    5s
*15039  1854              70     -28.3286169  -28.42414  0.34%  33.5    5s
*15271  1824              66     -28.3317247  -28.41904  0.31%  33.3    6s
*15783  1790              71     -28.3321101  -28.41397  0.29%  33.0    6s
*15785  1790              71     -28.3324661  -28.41397  0.29%  33.0    6s
*16481  1748              71     -28.3331518  -28.40352  0.25%  32.6    6s
*16484  1748              71     -28.3331945  -28.40352  0.25%  32.6    6s
*16488  1748              71     -28.3343136  -28.40352  0.24%  32.5    6s
*16489  1748              71     -28.3343168  -28.40352  0.24%  32.5    6s
*16860  1748              68     -28.3347027  -28.40197  0.24%  32.4    6s
*16861  1748              68     -28.3347473  -28.40197  0.24%  32.4    6s
*19833  1745              62     -28.3361505  -28.38089  0.16%  30.9    6s
*20067  1745              69     -28.3390950  -28.38089  0.15%  30.7    6s
*20068  1745              69     -28.3390951  -28.38089  0.15%  30.7    6s
*24417  1207              70     -28.3391233  -28.35269  0.05%  28.4    7s
*24862  1207              65     -28.3392820  -28.35239  0.05%  28.2    7s
*25549  1072              67     -28.3393703  -28.34766  0.03%  27.9    7s
*25552  1072              67     -28.3394014  -28.34766  0.03%  27.9    7s
*25849  1072              67     -28.3394077  -28.34737  0.03%  27.7    7s
*26819   802              67     -28.3394272  -28.34501  0.02%  27.2    8s
*26820   802              67     -28.3394329  -28.34501  0.02%  27.2    8s
*27498   554              70     -28.3394361  -28.34346  0.01%  26.8    8s
*27502   554              70     -28.3394374  -28.34346  0.01%  26.8    8s
*27513   554              69     -28.3394427  -28.34346  0.01%  26.8    8s
*27517   554              69     -28.3395038  -28.34346  0.01%  26.8    8s
*27851   554              68     -28.3395681  -28.34334  0.01%  26.6    8s
*27853   554              68     -28.3395997  -28.34334  0.01%  26.6    8s

Explored 29487 nodes (748902 simplex iterations) in 8.36 seconds
Thread count was 32 (of 72 available processors)

Solution count 10: -28.3396 -28.3396 -28.3395 ... -28.3394

Optimal solution found (tolerance 1.00e-04)
Best objective -2.833959969448e+01, best bound -2.833983068944e+01, gap 0.0008%

User-callback calls 60077, time in user-callback 0.01 sec



objective value: -28.33959969448229
objective bound: -28.339830689439356
x_opt: [1.0, 0.9165527296075955, 0.0, 0.3569782243985458, 0.0, 0.0, 1.0, 0.0, 0.0, 0.0, 1.0, 0.0, 1.0, 1.0, 0.45934121443149184, 1.0, 0.0, 1.0, 0.0, 0.0, 0.0, 0.20851285501473268, 0.0, 0.5538058675826636, 0.0, 0.6132964826360929, 0.0, 1.0, 0.0, 0.0, 1.0, 1.0, 0.0, 0.618003445310085, 1.0, 0.908835471672818, 0.0, 1.0, 0.0, 1.0, 1.0, 0.0, 0.9257522171803131, 0.10644901872941107, 0.0, 0.0, 0.4194060996077616, 0.3935954541096251, 0.16544373675247734, 0.0]
GUROBI solution time: 8.360509872436523




